c A SAT instance generated from a 3-CNF formula that had 17 clauses and 22 variables
p cnf 22 17
-9 7 -15 0
22 -4 19 0
16 -5 -14 0
-22 -20 6 0
-22 -2 -16 0
14 -7 -18 0
5 12 -3 0
10 3 18 0
22 3 10 0
-6 -7 14 0
17 -1 14 0
-5 12 -21 0
-19 -7 -18 0
21 13 -1 0
18 -13 17 0
6 17 3 0
13 -10 8 0
